column=9;
row=9;
left=[0, 1, 0, 4, 0, 3, 0, 3, 0];
right=[0, 0, 1, 2, 0, 0, 2, 2, 3];
top=[0, 3, 3, 0, 0, 0, 3, 3, 0];
bottom=[0, 2, 0, 0, 2, 3, 0, 0, 4];
Board=[|0,4,7,9,0,0,0,0,1|0,3,5,0,0,1,0,0,0|1,8,6,2,0,3,4,0,9|5,6,0,7,4,2,0,0,0|8,9,0,0,3,0,0,0,0|7,2,4,0,8,9,0,6,0|0,0,8,0,0,0,9,2,4|3,1,2,8,9,4,6,0,0|4,0,9,0,2,5,0,1,0|]